
Gurobi 10.0.0 (linux64) logging started Fri Dec 16 23:01:26 2022

Set parameter LogFile to value "../results/k02_n200_d070/k02_n200_d091_ising2_5_200_6666_BQO_log.txt"
Gurobi Optimizer version 10.0.0 build v10.0.0rc2 (linux64)

CPU model: Intel(R) Xeon(R) CPU E5-2630 v4 @ 2.20GHz, instruction set [SSE2|AVX|AVX2]
Thread count: 20 physical cores, 40 logical processors, using up to 10 threads

Optimize a model with 200 rows, 400 columns and 400 nonzeros
Model fingerprint: 0x93d70c0b
Model has 36492 quadratic objective terms
Variable types: 0 continuous, 400 integer (400 binary)
Coefficient statistics:
  Matrix range     [1e+00, 1e+00]
  Objective range  [0e+00, 0e+00]
  QObjective range [2e+00, 5e+05]
  Bounds range     [1e+00, 1e+00]
  RHS range        [1e+00, 1e+00]
Found heuristic solution: objective -0.0000000
Presolve removed 200 rows and 390 columns
Presolve time: 0.02s
Presolved: 45 rows, 55 columns, 135 nonzeros
Found heuristic solution: objective 6649444.0000
Variable types: 0 continuous, 55 integer (55 binary)

Root relaxation: objective 6.840284e+06, 17 iterations, 0.00 seconds (0.00 work units)

    Nodes    |    Current Node    |     Objective Bounds      |     Work
 Expl Unexpl |  Obj  Depth IntInf | Incumbent    BestBd   Gap | It/Node Time

     0     0 6840284.50    0   10 6649444.00 6840284.50  2.87%     -    0s
H    0     0                    6703245.0000 6840284.50  2.04%     -    0s
H    0     0                    6777638.0000 6840284.50  0.92%     -    0s
H    0     0                    6795365.0000 6840284.50  0.66%     -    0s

Cutting planes:
  Gomory: 1
  MIR: 20
  Zero half: 10
  RLT: 17
  BQP: 2

Explored 1 nodes (17 simplex iterations) in 0.03 seconds (0.00 work units)
Thread count was 10 (of 40 available processors)

Solution count 5: 6.79536e+06 6.77764e+06 6.70324e+06 ... -0

Optimal solution found (tolerance 0.00e+00)
Best objective 6.795365000000e+06, best bound 6.795365000000e+06, gap 0.0000%

Gurobi 10.0.0 (linux64) logging started Sat Dec 17 19:28:30 2022

Set parameter LogFile to value "../results/k02_n200_d070/k02_n200_d091_ising2_5_200_6666_BQO_log.txt"
Gurobi Optimizer version 10.0.0 build v10.0.0rc2 (linux64)

CPU model: Intel(R) Xeon(R) CPU E5-2630 v4 @ 2.20GHz, instruction set [SSE2|AVX|AVX2]
Thread count: 20 physical cores, 40 logical processors, using up to 10 threads

Optimize a model with 200 rows, 400 columns and 400 nonzeros
Model fingerprint: 0x93d70c0b
Model has 36492 quadratic objective terms
Variable types: 0 continuous, 400 integer (400 binary)
Coefficient statistics:
  Matrix range     [1e+00, 1e+00]
  Objective range  [0e+00, 0e+00]
  QObjective range [2e+00, 5e+05]
  Bounds range     [1e+00, 1e+00]
  RHS range        [1e+00, 1e+00]
Found heuristic solution: objective -0.0000000
Presolve removed 200 rows and 390 columns
Presolve time: 0.02s
Presolved: 45 rows, 55 columns, 135 nonzeros
Found heuristic solution: objective 6649444.0000
Variable types: 0 continuous, 55 integer (55 binary)

Root relaxation: objective 6.840284e+06, 17 iterations, 0.00 seconds (0.00 work units)

    Nodes    |    Current Node    |     Objective Bounds      |     Work
 Expl Unexpl |  Obj  Depth IntInf | Incumbent    BestBd   Gap | It/Node Time

     0     0 6840284.50    0   10 6649444.00 6840284.50  2.87%     -    0s
H    0     0                    6703245.0000 6840284.50  2.04%     -    0s
H    0     0                    6777638.0000 6840284.50  0.92%     -    0s
H    0     0                    6795365.0000 6840284.50  0.66%     -    0s

Cutting planes:
  Gomory: 1
  MIR: 20
  Zero half: 10
  RLT: 17
  BQP: 2

Explored 1 nodes (17 simplex iterations) in 0.03 seconds (0.00 work units)
Thread count was 10 (of 40 available processors)

Solution count 5: 6.79536e+06 6.77764e+06 6.70324e+06 ... -0

Optimal solution found (tolerance 0.00e+00)
Best objective 6.795365000000e+06, best bound 6.795365000000e+06, gap 0.0000%

Gurobi 10.0.0 (linux64) logging started Sat Dec 17 19:41:43 2022

Set parameter LogFile to value "../results/k02_n200_d070/k02_n200_d091_ising2_5_200_6666_BQO_log.txt"
Gurobi Optimizer version 10.0.0 build v10.0.0rc2 (linux64)

CPU model: Intel(R) Xeon(R) CPU E5-2630 v4 @ 2.20GHz, instruction set [SSE2|AVX|AVX2]
Thread count: 20 physical cores, 40 logical processors, using up to 10 threads

Optimize a model with 198 rows, 396 columns and 396 nonzeros
Model fingerprint: 0xc4fc3f12
Model has 35812 quadratic objective terms
Variable types: 0 continuous, 396 integer (396 binary)
Coefficient statistics:
  Matrix range     [1e+00, 1e+00]
  Objective range  [0e+00, 0e+00]
  QObjective range [2e+00, 6e+05]
  Bounds range     [1e+00, 1e+00]
  RHS range        [1e+00, 1e+00]
Found heuristic solution: objective -0.0000000
Presolve removed 198 rows and 386 columns
Presolve time: 0.02s
Presolved: 45 rows, 55 columns, 135 nonzeros
Found heuristic solution: objective 6649444.0000
Variable types: 0 continuous, 55 integer (55 binary)

Root relaxation: objective 6.840284e+06, 18 iterations, 0.00 seconds (0.00 work units)

    Nodes    |    Current Node    |     Objective Bounds      |     Work
 Expl Unexpl |  Obj  Depth IntInf | Incumbent    BestBd   Gap | It/Node Time

     0     0 6840284.50    0   10 6649444.00 6840284.50  2.87%     -    0s
H    0     0                    6779236.0000 6840284.50  0.90%     -    0s
H    0     0                    6795365.0000 6840284.50  0.66%     -    0s

Cutting planes:
  Gomory: 1
  MIR: 24
  Zero half: 11
  RLT: 10
  BQP: 7

Explored 1 nodes (18 simplex iterations) in 0.03 seconds (0.00 work units)
Thread count was 10 (of 40 available processors)

Solution count 4: 6.79536e+06 6.77924e+06 6.64944e+06 -0 

Optimal solution found (tolerance 0.00e+00)
Best objective 6.795365000000e+06, best bound 6.795365000000e+06, gap 0.0000%

Gurobi 10.0.0 (linux64) logging started Sat Dec 17 19:45:04 2022

Set parameter LogFile to value "../results/k02_n200_d070/k02_n200_d091_ising2_5_200_6666_BQO_log.txt"
Gurobi Optimizer version 10.0.0 build v10.0.0rc2 (linux64)

CPU model: Intel(R) Xeon(R) CPU E5-2630 v4 @ 2.20GHz, instruction set [SSE2|AVX|AVX2]
Thread count: 20 physical cores, 40 logical processors, using up to 10 threads

Optimize a model with 198 rows, 396 columns and 396 nonzeros
Model fingerprint: 0xc4fc3f12
Model has 35812 quadratic objective terms
Variable types: 0 continuous, 396 integer (396 binary)
Coefficient statistics:
  Matrix range     [1e+00, 1e+00]
  Objective range  [0e+00, 0e+00]
  QObjective range [2e+00, 6e+05]
  Bounds range     [1e+00, 1e+00]
  RHS range        [1e+00, 1e+00]
Found heuristic solution: objective -0.0000000
Presolve removed 198 rows and 386 columns
Presolve time: 0.02s
Presolved: 45 rows, 55 columns, 135 nonzeros
Found heuristic solution: objective 6649444.0000
Variable types: 0 continuous, 55 integer (55 binary)

Root relaxation: objective 6.840284e+06, 18 iterations, 0.00 seconds (0.00 work units)

    Nodes    |    Current Node    |     Objective Bounds      |     Work
 Expl Unexpl |  Obj  Depth IntInf | Incumbent    BestBd   Gap | It/Node Time

     0     0 6840284.50    0   10 6649444.00 6840284.50  2.87%     -    0s
H    0     0                    6779236.0000 6840284.50  0.90%     -    0s
H    0     0                    6795365.0000 6840284.50  0.66%     -    0s

Cutting planes:
  Gomory: 1
  MIR: 24
  Zero half: 11
  RLT: 10
  BQP: 7

Explored 1 nodes (18 simplex iterations) in 0.03 seconds (0.00 work units)
Thread count was 10 (of 40 available processors)

Solution count 4: 6.79536e+06 6.77924e+06 6.64944e+06 -0 

Optimal solution found (tolerance 0.00e+00)
Best objective 6.795365000000e+06, best bound 6.795365000000e+06, gap 0.0000%

Gurobi 10.0.0 (linux64) logging started Sat Dec 17 19:48:02 2022

Set parameter LogFile to value "../results/k02_n200_d070/k02_n200_d091_ising2_5_200_6666_BQO_log.txt"
Gurobi Optimizer version 10.0.0 build v10.0.0rc2 (linux64)

CPU model: Intel(R) Xeon(R) CPU E5-2630 v4 @ 2.20GHz, instruction set [SSE2|AVX|AVX2]
Thread count: 20 physical cores, 40 logical processors, using up to 10 threads

Optimize a model with 198 rows, 396 columns and 396 nonzeros
Model fingerprint: 0xc4fc3f12
Model has 35812 quadratic objective terms
Variable types: 0 continuous, 396 integer (396 binary)
Coefficient statistics:
  Matrix range     [1e+00, 1e+00]
  Objective range  [0e+00, 0e+00]
  QObjective range [2e+00, 6e+05]
  Bounds range     [1e+00, 1e+00]
  RHS range        [1e+00, 1e+00]
Found heuristic solution: objective -0.0000000
Presolve removed 198 rows and 386 columns
Presolve time: 0.02s
Presolved: 45 rows, 55 columns, 135 nonzeros
Found heuristic solution: objective 6649444.0000
Variable types: 0 continuous, 55 integer (55 binary)

Root relaxation: objective 6.840284e+06, 18 iterations, 0.00 seconds (0.00 work units)

    Nodes    |    Current Node    |     Objective Bounds      |     Work
 Expl Unexpl |  Obj  Depth IntInf | Incumbent    BestBd   Gap | It/Node Time

     0     0 6840284.50    0   10 6649444.00 6840284.50  2.87%     -    0s
H    0     0                    6779236.0000 6840284.50  0.90%     -    0s
H    0     0                    6795365.0000 6840284.50  0.66%     -    0s

Cutting planes:
  Gomory: 1
  MIR: 24
  Zero half: 11
  RLT: 10
  BQP: 7

Explored 1 nodes (18 simplex iterations) in 0.03 seconds (0.00 work units)
Thread count was 10 (of 40 available processors)

Solution count 4: 6.79536e+06 6.77924e+06 6.64944e+06 -0 

Optimal solution found (tolerance 0.00e+00)
Best objective 6.795365000000e+06, best bound 6.795365000000e+06, gap 0.0000%
